NAME: wi29.pc.opt.tour
COMMENT: Found by pc_tsp [Arno Formella]
COMMENT: Length 27601.2 (unrounded)
TYPE: TOUR
DIMENSION: 29
TOUR_SECTION
8
5
1
2
6
10
11
12
15
19
18
17
21
22
23
29
28
26
20
25
27
24
16
14
13
9
7
3
4
-1
EOF
